SimulationType                MonteCarlo
NumberOfCycles                0
NumberOfInitializationCycles  0
PrintEvery                    100
RestartFile                   no

Forcefield                    GenericMOFs
UseChargesFromCIFFile         yes

ChargeFromChargeEquilibration yes
ChargeEquilibrationPeriodic   yes
ChargeEquilibrationEwald      yes
SymmetrizeFrameworkCharges    no

Framework 0
FrameworkName JUC-596_hea_net_exp_charge
UnitCells 1 1 1
HeliumVoidFraction 0.917798
ExternalTemperature 323.0
ExternalPressure 100000.0

Component 0 MoleculeName             H2
            MoleculeDefinition       TraPPE
            TranslationProbability   0.5
            RotationProbability      0.5
            ReinsertionProbability   0.5
            SwapProbability          1.0
            CreateNumberOfMolecules  0

